(set-logic QF_LRA)
(declare-fun X0 () Real )
(declare-fun Y0 () Real )
(declare-fun X1 () Real )
(declare-fun Y1 () Real )
(declare-fun X2 () Real )
(declare-fun Y2 () Real )
(declare-fun X3 () Real )
(declare-fun Y3 () Real )
(declare-fun X4 () Real )
(declare-fun Y4 () Real )
(declare-fun X5 () Real )
(declare-fun Y5 () Real )
(declare-fun X6 () Real )
(declare-fun Y6 () Real )
(declare-fun X7 () Real )
(declare-fun Y7 () Real )
(declare-fun X8 () Real )
(declare-fun Y8 () Real )
(declare-fun X9 () Real )
(declare-fun Y9 () Real )
(declare-fun X10 () Real )
(declare-fun Y10 () Real )
(declare-fun X11 () Real )
(declare-fun Y11 () Real )
(declare-fun X12 () Real )
(declare-fun Y12 () Real )
(declare-fun X13 () Real )
(declare-fun Y13 () Real )
(declare-fun X14 () Real )
(declare-fun Y14 () Real )
(declare-fun X15 () Real )
(declare-fun Y15 () Real )
(declare-fun X16 () Real )
(declare-fun Y16 () Real )
(declare-fun X17 () Real )
(declare-fun Y17 () Real )
(declare-fun Z () Real )
(declare-fun k () Real )
(assert (let
(( $goal (>= Z k) ))
(let
((
$phi ( and 
( or ( <= ( + X0 22 ) X1 )  ( <= ( + X1 39 ) X0 )  ( <= ( + Y0 49 ) Y1 )  ( <= ( + Y1 62 ) Y0 )  )
( or ( <= ( + X0 22 ) X2 )  ( <= ( + X2 90 ) X0 )  ( <= ( + Y0 49 ) Y2 )  ( <= ( + Y2 67 ) Y0 )  )
( or ( <= ( + X0 22 ) X3 )  ( <= ( + X3 29 ) X0 )  ( <= ( + Y0 49 ) Y3 )  ( <= ( + Y3 99 ) Y0 )  )
( or ( <= ( + X0 22 ) X4 )  ( <= ( + X4 84 ) X0 )  ( <= ( + Y0 49 ) Y4 )  ( <= ( + Y4 16 ) Y0 )  )
( or ( <= ( + X0 22 ) X5 )  ( <= ( + X5 27 ) X0 )  ( <= ( + Y0 49 ) Y5 )  ( <= ( + Y5 18 ) Y0 )  )
( or ( <= ( + X0 22 ) X6 )  ( <= ( + X6 22 ) X0 )  ( <= ( + Y0 49 ) Y6 )  ( <= ( + Y6 8 ) Y0 )  )
( or ( <= ( + X0 22 ) X7 )  ( <= ( + X7 27 ) X0 )  ( <= ( + Y0 49 ) Y7 )  ( <= ( + Y7 36 ) Y0 )  )
( or ( <= ( + X0 22 ) X8 )  ( <= ( + X8 85 ) X0 )  ( <= ( + Y0 49 ) Y8 )  ( <= ( + Y8 73 ) Y0 )  )
( or ( <= ( + X0 22 ) X9 )  ( <= ( + X9 59 ) X0 )  ( <= ( + Y0 49 ) Y9 )  ( <= ( + Y9 36 ) Y0 )  )
( or ( <= ( + X0 22 ) X10 )  ( <= ( + X10 86 ) X0 )  ( <= ( + Y0 49 ) Y10 )  ( <= ( + Y10 30 ) Y0 )  )
( or ( <= ( + X0 22 ) X11 )  ( <= ( + X11 81 ) X0 )  ( <= ( + Y0 49 ) Y11 )  ( <= ( + Y11 49 ) Y0 )  )
( or ( <= ( + X0 22 ) X12 )  ( <= ( + X12 40 ) X0 )  ( <= ( + Y0 49 ) Y12 )  ( <= ( + Y12 50 ) Y0 )  )
( or ( <= ( + X0 22 ) X13 )  ( <= ( + X13 62 ) X0 )  ( <= ( + Y0 49 ) Y13 )  ( <= ( + Y13 3 ) Y0 )  )
( or ( <= ( + X0 22 ) X14 )  ( <= ( + X14 65 ) X0 )  ( <= ( + Y0 49 ) Y14 )  ( <= ( + Y14 39 ) Y0 )  )
( or ( <= ( + X0 22 ) X15 )  ( <= ( + X15 55 ) X0 )  ( <= ( + Y0 49 ) Y15 )  ( <= ( + Y15 40 ) Y0 )  )
( or ( <= ( + X0 22 ) X16 )  ( <= ( + X16 1 ) X0 )  ( <= ( + Y0 49 ) Y16 )  ( <= ( + Y16 83 ) Y0 )  )
( or ( <= ( + X0 22 ) X17 )  ( <= ( + X17 39 ) X0 )  ( <= ( + Y0 49 ) Y17 )  ( <= ( + Y17 22 ) Y0 )  )
( or ( <= ( + X1 39 ) X2 )  ( <= ( + X2 90 ) X1 )  ( <= ( + Y1 62 ) Y2 )  ( <= ( + Y2 67 ) Y1 )  )
( or ( <= ( + X1 39 ) X3 )  ( <= ( + X3 29 ) X1 )  ( <= ( + Y1 62 ) Y3 )  ( <= ( + Y3 99 ) Y1 )  )
( or ( <= ( + X1 39 ) X4 )  ( <= ( + X4 84 ) X1 )  ( <= ( + Y1 62 ) Y4 )  ( <= ( + Y4 16 ) Y1 )  )
( or ( <= ( + X1 39 ) X5 )  ( <= ( + X5 27 ) X1 )  ( <= ( + Y1 62 ) Y5 )  ( <= ( + Y5 18 ) Y1 )  )
( or ( <= ( + X1 39 ) X6 )  ( <= ( + X6 22 ) X1 )  ( <= ( + Y1 62 ) Y6 )  ( <= ( + Y6 8 ) Y1 )  )
( or ( <= ( + X1 39 ) X7 )  ( <= ( + X7 27 ) X1 )  ( <= ( + Y1 62 ) Y7 )  ( <= ( + Y7 36 ) Y1 )  )
( or ( <= ( + X1 39 ) X8 )  ( <= ( + X8 85 ) X1 )  ( <= ( + Y1 62 ) Y8 )  ( <= ( + Y8 73 ) Y1 )  )
( or ( <= ( + X1 39 ) X9 )  ( <= ( + X9 59 ) X1 )  ( <= ( + Y1 62 ) Y9 )  ( <= ( + Y9 36 ) Y1 )  )
( or ( <= ( + X1 39 ) X10 )  ( <= ( + X10 86 ) X1 )  ( <= ( + Y1 62 ) Y10 )  ( <= ( + Y10 30 ) Y1 )  )
( or ( <= ( + X1 39 ) X11 )  ( <= ( + X11 81 ) X1 )  ( <= ( + Y1 62 ) Y11 )  ( <= ( + Y11 49 ) Y1 )  )
( or ( <= ( + X1 39 ) X12 )  ( <= ( + X12 40 ) X1 )  ( <= ( + Y1 62 ) Y12 )  ( <= ( + Y12 50 ) Y1 )  )
( or ( <= ( + X1 39 ) X13 )  ( <= ( + X13 62 ) X1 )  ( <= ( + Y1 62 ) Y13 )  ( <= ( + Y13 3 ) Y1 )  )
( or ( <= ( + X1 39 ) X14 )  ( <= ( + X14 65 ) X1 )  ( <= ( + Y1 62 ) Y14 )  ( <= ( + Y14 39 ) Y1 )  )
( or ( <= ( + X1 39 ) X15 )  ( <= ( + X15 55 ) X1 )  ( <= ( + Y1 62 ) Y15 )  ( <= ( + Y15 40 ) Y1 )  )
( or ( <= ( + X1 39 ) X16 )  ( <= ( + X16 1 ) X1 )  ( <= ( + Y1 62 ) Y16 )  ( <= ( + Y16 83 ) Y1 )  )
( or ( <= ( + X1 39 ) X17 )  ( <= ( + X17 39 ) X1 )  ( <= ( + Y1 62 ) Y17 )  ( <= ( + Y17 22 ) Y1 )  )
( or ( <= ( + X2 90 ) X3 )  ( <= ( + X3 29 ) X2 )  ( <= ( + Y2 67 ) Y3 )  ( <= ( + Y3 99 ) Y2 )  )
( or ( <= ( + X2 90 ) X4 )  ( <= ( + X4 84 ) X2 )  ( <= ( + Y2 67 ) Y4 )  ( <= ( + Y4 16 ) Y2 )  )
( or ( <= ( + X2 90 ) X5 )  ( <= ( + X5 27 ) X2 )  ( <= ( + Y2 67 ) Y5 )  ( <= ( + Y5 18 ) Y2 )  )
( or ( <= ( + X2 90 ) X6 )  ( <= ( + X6 22 ) X2 )  ( <= ( + Y2 67 ) Y6 )  ( <= ( + Y6 8 ) Y2 )  )
( or ( <= ( + X2 90 ) X7 )  ( <= ( + X7 27 ) X2 )  ( <= ( + Y2 67 ) Y7 )  ( <= ( + Y7 36 ) Y2 )  )
( or ( <= ( + X2 90 ) X8 )  ( <= ( + X8 85 ) X2 )  ( <= ( + Y2 67 ) Y8 )  ( <= ( + Y8 73 ) Y2 )  )
( or ( <= ( + X2 90 ) X9 )  ( <= ( + X9 59 ) X2 )  ( <= ( + Y2 67 ) Y9 )  ( <= ( + Y9 36 ) Y2 )  )
( or ( <= ( + X2 90 ) X10 )  ( <= ( + X10 86 ) X2 )  ( <= ( + Y2 67 ) Y10 )  ( <= ( + Y10 30 ) Y2 )  )
( or ( <= ( + X2 90 ) X11 )  ( <= ( + X11 81 ) X2 )  ( <= ( + Y2 67 ) Y11 )  ( <= ( + Y11 49 ) Y2 )  )
( or ( <= ( + X2 90 ) X12 )  ( <= ( + X12 40 ) X2 )  ( <= ( + Y2 67 ) Y12 )  ( <= ( + Y12 50 ) Y2 )  )
( or ( <= ( + X2 90 ) X13 )  ( <= ( + X13 62 ) X2 )  ( <= ( + Y2 67 ) Y13 )  ( <= ( + Y13 3 ) Y2 )  )
( or ( <= ( + X2 90 ) X14 )  ( <= ( + X14 65 ) X2 )  ( <= ( + Y2 67 ) Y14 )  ( <= ( + Y14 39 ) Y2 )  )
( or ( <= ( + X2 90 ) X15 )  ( <= ( + X15 55 ) X2 )  ( <= ( + Y2 67 ) Y15 )  ( <= ( + Y15 40 ) Y2 )  )
( or ( <= ( + X2 90 ) X16 )  ( <= ( + X16 1 ) X2 )  ( <= ( + Y2 67 ) Y16 )  ( <= ( + Y16 83 ) Y2 )  )
( or ( <= ( + X2 90 ) X17 )  ( <= ( + X17 39 ) X2 )  ( <= ( + Y2 67 ) Y17 )  ( <= ( + Y17 22 ) Y2 )  )
( or ( <= ( + X3 29 ) X4 )  ( <= ( + X4 84 ) X3 )  ( <= ( + Y3 99 ) Y4 )  ( <= ( + Y4 16 ) Y3 )  )
( or ( <= ( + X3 29 ) X5 )  ( <= ( + X5 27 ) X3 )  ( <= ( + Y3 99 ) Y5 )  ( <= ( + Y5 18 ) Y3 )  )
( or ( <= ( + X3 29 ) X6 )  ( <= ( + X6 22 ) X3 )  ( <= ( + Y3 99 ) Y6 )  ( <= ( + Y6 8 ) Y3 )  )
( or ( <= ( + X3 29 ) X7 )  ( <= ( + X7 27 ) X3 )  ( <= ( + Y3 99 ) Y7 )  ( <= ( + Y7 36 ) Y3 )  )
( or ( <= ( + X3 29 ) X8 )  ( <= ( + X8 85 ) X3 )  ( <= ( + Y3 99 ) Y8 )  ( <= ( + Y8 73 ) Y3 )  )
( or ( <= ( + X3 29 ) X9 )  ( <= ( + X9 59 ) X3 )  ( <= ( + Y3 99 ) Y9 )  ( <= ( + Y9 36 ) Y3 )  )
( or ( <= ( + X3 29 ) X10 )  ( <= ( + X10 86 ) X3 )  ( <= ( + Y3 99 ) Y10 )  ( <= ( + Y10 30 ) Y3 )  )
( or ( <= ( + X3 29 ) X11 )  ( <= ( + X11 81 ) X3 )  ( <= ( + Y3 99 ) Y11 )  ( <= ( + Y11 49 ) Y3 )  )
( or ( <= ( + X3 29 ) X12 )  ( <= ( + X12 40 ) X3 )  ( <= ( + Y3 99 ) Y12 )  ( <= ( + Y12 50 ) Y3 )  )
( or ( <= ( + X3 29 ) X13 )  ( <= ( + X13 62 ) X3 )  ( <= ( + Y3 99 ) Y13 )  ( <= ( + Y13 3 ) Y3 )  )
( or ( <= ( + X3 29 ) X14 )  ( <= ( + X14 65 ) X3 )  ( <= ( + Y3 99 ) Y14 )  ( <= ( + Y14 39 ) Y3 )  )
( or ( <= ( + X3 29 ) X15 )  ( <= ( + X15 55 ) X3 )  ( <= ( + Y3 99 ) Y15 )  ( <= ( + Y15 40 ) Y3 )  )
( or ( <= ( + X3 29 ) X16 )  ( <= ( + X16 1 ) X3 )  ( <= ( + Y3 99 ) Y16 )  ( <= ( + Y16 83 ) Y3 )  )
( or ( <= ( + X3 29 ) X17 )  ( <= ( + X17 39 ) X3 )  ( <= ( + Y3 99 ) Y17 )  ( <= ( + Y17 22 ) Y3 )  )
( or ( <= ( + X4 84 ) X5 )  ( <= ( + X5 27 ) X4 )  ( <= ( + Y4 16 ) Y5 )  ( <= ( + Y5 18 ) Y4 )  )
( or ( <= ( + X4 84 ) X6 )  ( <= ( + X6 22 ) X4 )  ( <= ( + Y4 16 ) Y6 )  ( <= ( + Y6 8 ) Y4 )  )
( or ( <= ( + X4 84 ) X7 )  ( <= ( + X7 27 ) X4 )  ( <= ( + Y4 16 ) Y7 )  ( <= ( + Y7 36 ) Y4 )  )
( or ( <= ( + X4 84 ) X8 )  ( <= ( + X8 85 ) X4 )  ( <= ( + Y4 16 ) Y8 )  ( <= ( + Y8 73 ) Y4 )  )
( or ( <= ( + X4 84 ) X9 )  ( <= ( + X9 59 ) X4 )  ( <= ( + Y4 16 ) Y9 )  ( <= ( + Y9 36 ) Y4 )  )
( or ( <= ( + X4 84 ) X10 )  ( <= ( + X10 86 ) X4 )  ( <= ( + Y4 16 ) Y10 )  ( <= ( + Y10 30 ) Y4 )  )
( or ( <= ( + X4 84 ) X11 )  ( <= ( + X11 81 ) X4 )  ( <= ( + Y4 16 ) Y11 )  ( <= ( + Y11 49 ) Y4 )  )
( or ( <= ( + X4 84 ) X12 )  ( <= ( + X12 40 ) X4 )  ( <= ( + Y4 16 ) Y12 )  ( <= ( + Y12 50 ) Y4 )  )
( or ( <= ( + X4 84 ) X13 )  ( <= ( + X13 62 ) X4 )  ( <= ( + Y4 16 ) Y13 )  ( <= ( + Y13 3 ) Y4 )  )
( or ( <= ( + X4 84 ) X14 )  ( <= ( + X14 65 ) X4 )  ( <= ( + Y4 16 ) Y14 )  ( <= ( + Y14 39 ) Y4 )  )
( or ( <= ( + X4 84 ) X15 )  ( <= ( + X15 55 ) X4 )  ( <= ( + Y4 16 ) Y15 )  ( <= ( + Y15 40 ) Y4 )  )
( or ( <= ( + X4 84 ) X16 )  ( <= ( + X16 1 ) X4 )  ( <= ( + Y4 16 ) Y16 )  ( <= ( + Y16 83 ) Y4 )  )
( or ( <= ( + X4 84 ) X17 )  ( <= ( + X17 39 ) X4 )  ( <= ( + Y4 16 ) Y17 )  ( <= ( + Y17 22 ) Y4 )  )
( or ( <= ( + X5 27 ) X6 )  ( <= ( + X6 22 ) X5 )  ( <= ( + Y5 18 ) Y6 )  ( <= ( + Y6 8 ) Y5 )  )
( or ( <= ( + X5 27 ) X7 )  ( <= ( + X7 27 ) X5 )  ( <= ( + Y5 18 ) Y7 )  ( <= ( + Y7 36 ) Y5 )  )
( or ( <= ( + X5 27 ) X8 )  ( <= ( + X8 85 ) X5 )  ( <= ( + Y5 18 ) Y8 )  ( <= ( + Y8 73 ) Y5 )  )
( or ( <= ( + X5 27 ) X9 )  ( <= ( + X9 59 ) X5 )  ( <= ( + Y5 18 ) Y9 )  ( <= ( + Y9 36 ) Y5 )  )
( or ( <= ( + X5 27 ) X10 )  ( <= ( + X10 86 ) X5 )  ( <= ( + Y5 18 ) Y10 )  ( <= ( + Y10 30 ) Y5 )  )
( or ( <= ( + X5 27 ) X11 )  ( <= ( + X11 81 ) X5 )  ( <= ( + Y5 18 ) Y11 )  ( <= ( + Y11 49 ) Y5 )  )
( or ( <= ( + X5 27 ) X12 )  ( <= ( + X12 40 ) X5 )  ( <= ( + Y5 18 ) Y12 )  ( <= ( + Y12 50 ) Y5 )  )
( or ( <= ( + X5 27 ) X13 )  ( <= ( + X13 62 ) X5 )  ( <= ( + Y5 18 ) Y13 )  ( <= ( + Y13 3 ) Y5 )  )
( or ( <= ( + X5 27 ) X14 )  ( <= ( + X14 65 ) X5 )  ( <= ( + Y5 18 ) Y14 )  ( <= ( + Y14 39 ) Y5 )  )
( or ( <= ( + X5 27 ) X15 )  ( <= ( + X15 55 ) X5 )  ( <= ( + Y5 18 ) Y15 )  ( <= ( + Y15 40 ) Y5 )  )
( or ( <= ( + X5 27 ) X16 )  ( <= ( + X16 1 ) X5 )  ( <= ( + Y5 18 ) Y16 )  ( <= ( + Y16 83 ) Y5 )  )
( or ( <= ( + X5 27 ) X17 )  ( <= ( + X17 39 ) X5 )  ( <= ( + Y5 18 ) Y17 )  ( <= ( + Y17 22 ) Y5 )  )
( or ( <= ( + X6 22 ) X7 )  ( <= ( + X7 27 ) X6 )  ( <= ( + Y6 8 ) Y7 )  ( <= ( + Y7 36 ) Y6 )  )
( or ( <= ( + X6 22 ) X8 )  ( <= ( + X8 85 ) X6 )  ( <= ( + Y6 8 ) Y8 )  ( <= ( + Y8 73 ) Y6 )  )
( or ( <= ( + X6 22 ) X9 )  ( <= ( + X9 59 ) X6 )  ( <= ( + Y6 8 ) Y9 )  ( <= ( + Y9 36 ) Y6 )  )
( or ( <= ( + X6 22 ) X10 )  ( <= ( + X10 86 ) X6 )  ( <= ( + Y6 8 ) Y10 )  ( <= ( + Y10 30 ) Y6 )  )
( or ( <= ( + X6 22 ) X11 )  ( <= ( + X11 81 ) X6 )  ( <= ( + Y6 8 ) Y11 )  ( <= ( + Y11 49 ) Y6 )  )
( or ( <= ( + X6 22 ) X12 )  ( <= ( + X12 40 ) X6 )  ( <= ( + Y6 8 ) Y12 )  ( <= ( + Y12 50 ) Y6 )  )
( or ( <= ( + X6 22 ) X13 )  ( <= ( + X13 62 ) X6 )  ( <= ( + Y6 8 ) Y13 )  ( <= ( + Y13 3 ) Y6 )  )
( or ( <= ( + X6 22 ) X14 )  ( <= ( + X14 65 ) X6 )  ( <= ( + Y6 8 ) Y14 )  ( <= ( + Y14 39 ) Y6 )  )
( or ( <= ( + X6 22 ) X15 )  ( <= ( + X15 55 ) X6 )  ( <= ( + Y6 8 ) Y15 )  ( <= ( + Y15 40 ) Y6 )  )
( or ( <= ( + X6 22 ) X16 )  ( <= ( + X16 1 ) X6 )  ( <= ( + Y6 8 ) Y16 )  ( <= ( + Y16 83 ) Y6 )  )
( or ( <= ( + X6 22 ) X17 )  ( <= ( + X17 39 ) X6 )  ( <= ( + Y6 8 ) Y17 )  ( <= ( + Y17 22 ) Y6 )  )
( or ( <= ( + X7 27 ) X8 )  ( <= ( + X8 85 ) X7 )  ( <= ( + Y7 36 ) Y8 )  ( <= ( + Y8 73 ) Y7 )  )
( or ( <= ( + X7 27 ) X9 )  ( <= ( + X9 59 ) X7 )  ( <= ( + Y7 36 ) Y9 )  ( <= ( + Y9 36 ) Y7 )  )
( or ( <= ( + X7 27 ) X10 )  ( <= ( + X10 86 ) X7 )  ( <= ( + Y7 36 ) Y10 )  ( <= ( + Y10 30 ) Y7 )  )
( or ( <= ( + X7 27 ) X11 )  ( <= ( + X11 81 ) X7 )  ( <= ( + Y7 36 ) Y11 )  ( <= ( + Y11 49 ) Y7 )  )
( or ( <= ( + X7 27 ) X12 )  ( <= ( + X12 40 ) X7 )  ( <= ( + Y7 36 ) Y12 )  ( <= ( + Y12 50 ) Y7 )  )
( or ( <= ( + X7 27 ) X13 )  ( <= ( + X13 62 ) X7 )  ( <= ( + Y7 36 ) Y13 )  ( <= ( + Y13 3 ) Y7 )  )
( or ( <= ( + X7 27 ) X14 )  ( <= ( + X14 65 ) X7 )  ( <= ( + Y7 36 ) Y14 )  ( <= ( + Y14 39 ) Y7 )  )
( or ( <= ( + X7 27 ) X15 )  ( <= ( + X15 55 ) X7 )  ( <= ( + Y7 36 ) Y15 )  ( <= ( + Y15 40 ) Y7 )  )
( or ( <= ( + X7 27 ) X16 )  ( <= ( + X16 1 ) X7 )  ( <= ( + Y7 36 ) Y16 )  ( <= ( + Y16 83 ) Y7 )  )
( or ( <= ( + X7 27 ) X17 )  ( <= ( + X17 39 ) X7 )  ( <= ( + Y7 36 ) Y17 )  ( <= ( + Y17 22 ) Y7 )  )
( or ( <= ( + X8 85 ) X9 )  ( <= ( + X9 59 ) X8 )  ( <= ( + Y8 73 ) Y9 )  ( <= ( + Y9 36 ) Y8 )  )
( or ( <= ( + X8 85 ) X10 )  ( <= ( + X10 86 ) X8 )  ( <= ( + Y8 73 ) Y10 )  ( <= ( + Y10 30 ) Y8 )  )
( or ( <= ( + X8 85 ) X11 )  ( <= ( + X11 81 ) X8 )  ( <= ( + Y8 73 ) Y11 )  ( <= ( + Y11 49 ) Y8 )  )
( or ( <= ( + X8 85 ) X12 )  ( <= ( + X12 40 ) X8 )  ( <= ( + Y8 73 ) Y12 )  ( <= ( + Y12 50 ) Y8 )  )
( or ( <= ( + X8 85 ) X13 )  ( <= ( + X13 62 ) X8 )  ( <= ( + Y8 73 ) Y13 )  ( <= ( + Y13 3 ) Y8 )  )
( or ( <= ( + X8 85 ) X14 )  ( <= ( + X14 65 ) X8 )  ( <= ( + Y8 73 ) Y14 )  ( <= ( + Y14 39 ) Y8 )  )
( or ( <= ( + X8 85 ) X15 )  ( <= ( + X15 55 ) X8 )  ( <= ( + Y8 73 ) Y15 )  ( <= ( + Y15 40 ) Y8 )  )
( or ( <= ( + X8 85 ) X16 )  ( <= ( + X16 1 ) X8 )  ( <= ( + Y8 73 ) Y16 )  ( <= ( + Y16 83 ) Y8 )  )
( or ( <= ( + X8 85 ) X17 )  ( <= ( + X17 39 ) X8 )  ( <= ( + Y8 73 ) Y17 )  ( <= ( + Y17 22 ) Y8 )  )
( or ( <= ( + X9 59 ) X10 )  ( <= ( + X10 86 ) X9 )  ( <= ( + Y9 36 ) Y10 )  ( <= ( + Y10 30 ) Y9 )  )
( or ( <= ( + X9 59 ) X11 )  ( <= ( + X11 81 ) X9 )  ( <= ( + Y9 36 ) Y11 )  ( <= ( + Y11 49 ) Y9 )  )
( or ( <= ( + X9 59 ) X12 )  ( <= ( + X12 40 ) X9 )  ( <= ( + Y9 36 ) Y12 )  ( <= ( + Y12 50 ) Y9 )  )
( or ( <= ( + X9 59 ) X13 )  ( <= ( + X13 62 ) X9 )  ( <= ( + Y9 36 ) Y13 )  ( <= ( + Y13 3 ) Y9 )  )
( or ( <= ( + X9 59 ) X14 )  ( <= ( + X14 65 ) X9 )  ( <= ( + Y9 36 ) Y14 )  ( <= ( + Y14 39 ) Y9 )  )
( or ( <= ( + X9 59 ) X15 )  ( <= ( + X15 55 ) X9 )  ( <= ( + Y9 36 ) Y15 )  ( <= ( + Y15 40 ) Y9 )  )
( or ( <= ( + X9 59 ) X16 )  ( <= ( + X16 1 ) X9 )  ( <= ( + Y9 36 ) Y16 )  ( <= ( + Y16 83 ) Y9 )  )
( or ( <= ( + X9 59 ) X17 )  ( <= ( + X17 39 ) X9 )  ( <= ( + Y9 36 ) Y17 )  ( <= ( + Y17 22 ) Y9 )  )
( or ( <= ( + X10 86 ) X11 )  ( <= ( + X11 81 ) X10 )  ( <= ( + Y10 30 ) Y11 )  ( <= ( + Y11 49 ) Y10 )  )
( or ( <= ( + X10 86 ) X12 )  ( <= ( + X12 40 ) X10 )  ( <= ( + Y10 30 ) Y12 )  ( <= ( + Y12 50 ) Y10 )  )
( or ( <= ( + X10 86 ) X13 )  ( <= ( + X13 62 ) X10 )  ( <= ( + Y10 30 ) Y13 )  ( <= ( + Y13 3 ) Y10 )  )
( or ( <= ( + X10 86 ) X14 )  ( <= ( + X14 65 ) X10 )  ( <= ( + Y10 30 ) Y14 )  ( <= ( + Y14 39 ) Y10 )  )
( or ( <= ( + X10 86 ) X15 )  ( <= ( + X15 55 ) X10 )  ( <= ( + Y10 30 ) Y15 )  ( <= ( + Y15 40 ) Y10 )  )
( or ( <= ( + X10 86 ) X16 )  ( <= ( + X16 1 ) X10 )  ( <= ( + Y10 30 ) Y16 )  ( <= ( + Y16 83 ) Y10 )  )
( or ( <= ( + X10 86 ) X17 )  ( <= ( + X17 39 ) X10 )  ( <= ( + Y10 30 ) Y17 )  ( <= ( + Y17 22 ) Y10 )  )
( or ( <= ( + X11 81 ) X12 )  ( <= ( + X12 40 ) X11 )  ( <= ( + Y11 49 ) Y12 )  ( <= ( + Y12 50 ) Y11 )  )
( or ( <= ( + X11 81 ) X13 )  ( <= ( + X13 62 ) X11 )  ( <= ( + Y11 49 ) Y13 )  ( <= ( + Y13 3 ) Y11 )  )
( or ( <= ( + X11 81 ) X14 )  ( <= ( + X14 65 ) X11 )  ( <= ( + Y11 49 ) Y14 )  ( <= ( + Y14 39 ) Y11 )  )
( or ( <= ( + X11 81 ) X15 )  ( <= ( + X15 55 ) X11 )  ( <= ( + Y11 49 ) Y15 )  ( <= ( + Y15 40 ) Y11 )  )
( or ( <= ( + X11 81 ) X16 )  ( <= ( + X16 1 ) X11 )  ( <= ( + Y11 49 ) Y16 )  ( <= ( + Y16 83 ) Y11 )  )
( or ( <= ( + X11 81 ) X17 )  ( <= ( + X17 39 ) X11 )  ( <= ( + Y11 49 ) Y17 )  ( <= ( + Y17 22 ) Y11 )  )
( or ( <= ( + X12 40 ) X13 )  ( <= ( + X13 62 ) X12 )  ( <= ( + Y12 50 ) Y13 )  ( <= ( + Y13 3 ) Y12 )  )
( or ( <= ( + X12 40 ) X14 )  ( <= ( + X14 65 ) X12 )  ( <= ( + Y12 50 ) Y14 )  ( <= ( + Y14 39 ) Y12 )  )
( or ( <= ( + X12 40 ) X15 )  ( <= ( + X15 55 ) X12 )  ( <= ( + Y12 50 ) Y15 )  ( <= ( + Y15 40 ) Y12 )  )
( or ( <= ( + X12 40 ) X16 )  ( <= ( + X16 1 ) X12 )  ( <= ( + Y12 50 ) Y16 )  ( <= ( + Y16 83 ) Y12 )  )
( or ( <= ( + X12 40 ) X17 )  ( <= ( + X17 39 ) X12 )  ( <= ( + Y12 50 ) Y17 )  ( <= ( + Y17 22 ) Y12 )  )
( or ( <= ( + X13 62 ) X14 )  ( <= ( + X14 65 ) X13 )  ( <= ( + Y13 3 ) Y14 )  ( <= ( + Y14 39 ) Y13 )  )
( or ( <= ( + X13 62 ) X15 )  ( <= ( + X15 55 ) X13 )  ( <= ( + Y13 3 ) Y15 )  ( <= ( + Y15 40 ) Y13 )  )
( or ( <= ( + X13 62 ) X16 )  ( <= ( + X16 1 ) X13 )  ( <= ( + Y13 3 ) Y16 )  ( <= ( + Y16 83 ) Y13 )  )
( or ( <= ( + X13 62 ) X17 )  ( <= ( + X17 39 ) X13 )  ( <= ( + Y13 3 ) Y17 )  ( <= ( + Y17 22 ) Y13 )  )
( or ( <= ( + X14 65 ) X15 )  ( <= ( + X15 55 ) X14 )  ( <= ( + Y14 39 ) Y15 )  ( <= ( + Y15 40 ) Y14 )  )
( or ( <= ( + X14 65 ) X16 )  ( <= ( + X16 1 ) X14 )  ( <= ( + Y14 39 ) Y16 )  ( <= ( + Y16 83 ) Y14 )  )
( or ( <= ( + X14 65 ) X17 )  ( <= ( + X17 39 ) X14 )  ( <= ( + Y14 39 ) Y17 )  ( <= ( + Y17 22 ) Y14 )  )
( or ( <= ( + X15 55 ) X16 )  ( <= ( + X16 1 ) X15 )  ( <= ( + Y15 40 ) Y16 )  ( <= ( + Y16 83 ) Y15 )  )
( or ( <= ( + X15 55 ) X17 )  ( <= ( + X17 39 ) X15 )  ( <= ( + Y15 40 ) Y17 )  ( <= ( + Y17 22 ) Y15 )  )
( or ( <= ( + X16 1 ) X17 )  ( <= ( + X17 39 ) X16 )  ( <= ( + Y16 83 ) Y17 )  ( <= ( + Y17 22 ) Y16 )  )
( >= X0 0)
( <= ( + X0 22) Z)
( >= Y0 0)
( <= ( + Y0 49 ) 212)
( >= X1 0)
( <= ( + X1 39) Z)
( >= Y1 0)
( <= ( + Y1 62 ) 212)
( >= X2 0)
( <= ( + X2 90) Z)
( >= Y2 0)
( <= ( + Y2 67 ) 212)
( >= X3 0)
( <= ( + X3 29) Z)
( >= Y3 0)
( <= ( + Y3 99 ) 212)
( >= X4 0)
( <= ( + X4 84) Z)
( >= Y4 0)
( <= ( + Y4 16 ) 212)
( >= X5 0)
( <= ( + X5 27) Z)
( >= Y5 0)
( <= ( + Y5 18 ) 212)
( >= X6 0)
( <= ( + X6 22) Z)
( >= Y6 0)
( <= ( + Y6 8 ) 212)
( >= X7 0)
( <= ( + X7 27) Z)
( >= Y7 0)
( <= ( + Y7 36 ) 212)
( >= X8 0)
( <= ( + X8 85) Z)
( >= Y8 0)
( <= ( + Y8 73 ) 212)
( >= X9 0)
( <= ( + X9 59) Z)
( >= Y9 0)
( <= ( + Y9 36 ) 212)
( >= X10 0)
( <= ( + X10 86) Z)
( >= Y10 0)
( <= ( + Y10 30 ) 212)
( >= X11 0)
( <= ( + X11 81) Z)
( >= Y11 0)
( <= ( + Y11 49 ) 212)
( >= X12 0)
( <= ( + X12 40) Z)
( >= Y12 0)
( <= ( + Y12 50 ) 212)
( >= X13 0)
( <= ( + X13 62) Z)
( >= Y13 0)
( <= ( + Y13 3 ) 212)
( >= X14 0)
( <= ( + X14 65) Z)
( >= Y14 0)
( <= ( + Y14 39 ) 212)
( >= X15 0)
( <= ( + X15 55) Z)
( >= Y15 0)
( <= ( + Y15 40 ) 212)
( >= X16 0)
( <= ( + X16 1) Z)
( >= Y16 0)
( <= ( + Y16 83 ) 212)
( >= X17 0)
( <= ( + X17 39) Z)
( >= Y17 0)
( <= ( + Y17 22 ) 212)
) )
)(=> $phi $goal))))